results_rootrelaxation/bin018_050_042.srr.sol
solution status: optimal solution found
objective value:                                    0
_var242_                            0.276803023079603 	(obj:0)
_var366_                            0.155393245259625 	(obj:0)
_var1705_                          0.0873503464511465 	(obj:0)
_var2186_                            0.16251577809598 	(obj:0)
_var2220_                          0.0623354473020884 	(obj:0)
_var2290_                          0.0699323247426182 	(obj:0)
_var2759_                            0.11852901821176 	(obj:0)
_var2763_                          0.0274417050250566 	(obj:0)
_var2764_                           0.129584927166382 	(obj:0)
_var2765_                         0.00198334402728895 	(obj:0)
_var2767_                           0.199299008992445 	(obj:0)
_var2771_                           0.187349811997157 	(obj:0)
_var2773_                          0.0177361342622397 	(obj:0)
_var2776_                          0.0377804041369994 	(obj:0)
_var2779_                           0.212429140654402 	(obj:0)
_var2780_                           0.126227985851058 	(obj:0)
_var2782_                           0.121709514877391 	(obj:0)
_var2784_                          0.0275649587000121 	(obj:0)
_var2791_                           0.211337173256645 	(obj:0)
_var2792_                          0.0551911407903184 	(obj:0)
_var2801_                           0.200134325905228 	(obj:0)
_var2807_                           0.210597039168019 	(obj:0)
_var2809_                          0.0358003707476182 	(obj:0)
_var2810_                           0.154166756218805 	(obj:0)
_var2811_                           0.351213346728412 	(obj:0)
_var2813_                          0.0771346244108626 	(obj:0)
_var2824_                           0.274609208920185 	(obj:0)
_var2825_                          0.0483519505116503 	(obj:0)
_var2826_                          0.0915458093038334 	(obj:0)
_var2831_                           0.121287403568257 	(obj:0)
_var2834_                          0.0690329673774447 	(obj:0)
_var2838_                           0.181985116667067 	(obj:0)
_var2839_                           0.151826713619273 	(obj:0)
_var2841_                          0.0634427563497322 	(obj:0)
_var2843_                          0.0235652280129467 	(obj:0)
_var2844_                           0.033295829986293 	(obj:0)
_var2846_                         0.00931473164355889 	(obj:0)
_var2847_                           0.103852184812628 	(obj:0)
_var2850_                           0.425676419213251 	(obj:0)
_var2854_                           0.215673277686608 	(obj:0)
_var2855_                          0.0829238573090402 	(obj:0)
_var2859_                          0.0751838430679944 	(obj:0)
_var2860_                          0.0787582344451322 	(obj:0)
_var2861_                           0.281195865224805 	(obj:0)
_var2863_                           0.648035554867525 	(obj:0)
_var2876_                          0.0199340413307841 	(obj:0)
_var2878_                           0.130092824591567 	(obj:0)
_var2879_                            0.24159483091386 	(obj:0)
_var2881_                            0.07634375393314 	(obj:0)
_var2884_                          0.0926440117901476 	(obj:0)
_var2885_                           0.171427633689037 	(obj:0)
_var2886_                           0.114406969907357 	(obj:0)
_var2887_                           0.163012769577209 	(obj:0)
_var2888_                           0.203655324373311 	(obj:0)
_var2893_                         0.00745879296481023 	(obj:0)
_var2894_                          0.0450477791124869 	(obj:0)
_var2897_                           0.158067028617382 	(obj:0)
_var2900_                          0.0754207896580192 	(obj:0)
_var2902_                          0.0329788721209289 	(obj:0)
_var2903_                            0.11034330447428 	(obj:0)
_var2905_                           0.412392323405837 	(obj:0)
_var2907_                           0.110087804893032 	(obj:0)
_var2908_                           0.281572905542497 	(obj:0)
_var2909_                           0.186625661337742 	(obj:0)
_var2910_                           0.234398145303542 	(obj:0)
_var2911_                          0.0900810716375329 	(obj:0)
_var2913_                          0.0703904423861357 	(obj:0)
_var2915_                           0.181269580432548 	(obj:0)
_var2917_                           0.141474222514956 	(obj:0)
_var2918_                          0.0508847917174158 	(obj:0)
_var2921_                           0.287742157883281 	(obj:0)
_var2923_                           0.189694792562501 	(obj:0)
_var2924_                          0.0184101578521098 	(obj:0)
_var2925_                           0.339694142328855 	(obj:0)
_var2926_                           0.069549001253334 	(obj:0)
_var2927_                           0.062191758938253 	(obj:0)
_var2928_                          0.0785207428367689 	(obj:0)
_var2930_                           0.304373646472678 	(obj:0)
_var2932_                           0.143867685697837 	(obj:0)
_var2933_                           0.177059700324034 	(obj:0)
_var2934_                           0.109972220910217 	(obj:0)
_var2939_                          0.0136140747648195 	(obj:0)
_var2940_                          0.0146807593100601 	(obj:0)
_var2941_                           0.164046222830768 	(obj:0)
_var2942_                           0.180238809551692 	(obj:0)
_var2944_                          0.0711302678058729 	(obj:0)
_var2945_                          0.0868984919941017 	(obj:0)
_var2946_                          0.0435602366433001 	(obj:0)
_var2949_                           0.117506382036552 	(obj:0)
_var2950_                          0.0782058052409345 	(obj:0)
_var2951_                           0.105797057920067 	(obj:0)
_var2952_                          0.0368849797129312 	(obj:0)
_var2954_                            0.18522435512338 	(obj:0)
_var2955_                          0.0984194995905744 	(obj:0)
_var2956_                           0.075092873117779 	(obj:0)
_var2957_                           0.261949137168656 	(obj:0)
_var2958_                          0.0341550913659528 	(obj:0)
_var2959_                           0.109517907770643 	(obj:0)
_var2960_                          0.0241010596866311 	(obj:0)
_var2961_                          0.0192455642425804 	(obj:0)
_var2963_                           0.097182837197505 	(obj:0)
_var2965_                         0.00651463693668322 	(obj:0)
_var2966_                          0.0136849908096118 	(obj:0)
_var2967_                          0.0815917605104891 	(obj:0)
_var2968_                          0.0887394170330348 	(obj:0)
_var2970_                           0.252853245180074 	(obj:0)
_var2971_                          0.0611884697509794 	(obj:0)
_var2972_                           0.230677041564218 	(obj:0)
_var2974_                            0.11516298332046 	(obj:0)
_var2975_                           0.131173106521787 	(obj:0)
_var2976_                          0.0338416689386285 	(obj:0)
_var2979_                         0.00585861505814916 	(obj:0)
_var2980_                         0.00310429051530789 	(obj:0)
_var2981_                          0.0114149232873268 	(obj:0)
_var2984_                           0.118437018443125 	(obj:0)
_var2985_                         0.00393297248561308 	(obj:0)
_var2986_                           0.102545648766837 	(obj:0)
_var2987_                           0.162418296576454 	(obj:0)
_var2989_                           0.072253893994075 	(obj:0)
_var2991_                           0.153603353662215 	(obj:0)
_var2994_                          0.0517713178477319 	(obj:0)
_var2995_                           0.146364874001822 	(obj:0)
_var2996_                          0.0670426590929264 	(obj:0)
_var2999_                          0.0780192708451775 	(obj:0)
_var3000_                          0.0739116572124167 	(obj:0)
_var3001_                          0.0389688102910915 	(obj:0)
_var3002_                          0.0841493583121456 	(obj:0)
_var3003_                         0.00814919286087426 	(obj:0)
_var3005_                           0.101838607146318 	(obj:0)
_var3007_                          0.0297120181910557 	(obj:0)
_var3009_                          0.0866289683605533 	(obj:0)
_var3010_                          0.0529300931116871 	(obj:0)
_var3011_                           0.101567821174385 	(obj:0)
_var3013_                          0.0595667800649372 	(obj:0)
_var3014_                          0.0137415908225075 	(obj:0)
_var3016_                          0.0828307501457639 	(obj:0)
_var3018_                          0.0414978815234811 	(obj:0)
_var3020_                           0.159522097033862 	(obj:0)
_var3021_                           0.235706783279668 	(obj:0)
_var3023_                          0.0885037868184389 	(obj:0)
_var3024_                          0.0498601084605905 	(obj:0)
_var3032_                          0.0210128102115875 	(obj:0)
_var3033_                          0.0172180269439093 	(obj:0)
_var3035_                          0.0338886839628511 	(obj:0)
_var3036_                          0.0360778086014987 	(obj:0)
_var3038_                         0.00564987703377429 	(obj:0)
_var3040_                          0.0593908505722048 	(obj:0)
_var3043_                          0.0939993003616353 	(obj:0)
_var3046_                           0.104403588576046 	(obj:0)
_var3060_                          0.0223228221977315 	(obj:0)
_var3061_                         0.00220447275599781 	(obj:0)
_var3064_                         0.00532005382364686 	(obj:0)
