results_rootrelaxation/bin018_050_042.srr.log
SCIP version 8.0.3.5 [precision: 8 byte] [memory: block] [mode: optimized] [LP solver: Soplex 6.0.1.3] [GitHash: 438792519e]
Copyright (c) 2002-2023 Zuse Institute Berlin (ZIB)

External libraries: 
  Readline 8.1         GNU library for command line editing (gnu.org/s/readline)
  Soplex 6.0.1.3       Linear Programming Solver developed at Zuse Institute Berlin (soplex.zib.de) [GitHash: 713be0fe]
  CppAD 20180000.0     Algorithmic Differentiation of C++ algorithms developed by B. Bell (github.com/coin-or/CppAD)
  ZLIB 1.2.11          General purpose compression library by J. Gailly and M. Adler (zlib.net)
  bliss 0.77           Computing Graph Automorphism Groups by T. Junttila and P. Kaski (www.tcs.hut.fi/Software/bliss/)

user parameter file <scip.set> not found - using default parameters

srr/relaxation = TRUE

read problem <instances/bin018_050_042.srr>
============

Original problem: 
original problem has 0 variables (0 bin, 0 int, 0 impl, 0 cont) and 170 constraints

presolving:
presolving (1 rounds: 1 fast, 1 medium, 1 exhaustive):
 0 deleted vars, 0 deleted constraints, 0 added constraints, 0 tightened bounds, 0 added holes, 0 changed sides, 0 changed coefficients
 0 implications, 0 cliques
presolved problem has 0 variables (0 bin, 0 int, 0 impl, 0 cont) and 170 constraints
    170 constraints of type <linear>
Presolving Time: 0.00

 time | node  | left  |LP iter|LP it/n|mem/heur|mdpt |vars |cons |rows |cuts |sepa|confs|strbr|  dualbound   | primalbound  |  gap   | compl. 
  0.0s|     1 |     0 |     1 |     - |   922k |   0 |   1 | 170 | 170 |   0 |  0 |   0 |   0 |      --      |      --      |    Inf | unknown
  0.2s|     1 |     0 |  1649 |     - |  7203k |   0 |1603 | 170 | 170 |   0 |  0 |   0 |   0 |      --      |      --      |    Inf | unknown
r 0.9s|     1 |     0 |  7104 |     - |simplero|   0 |2759 | 170 | 170 |   0 |  0 |   0 |   0 |      --      | 3.089519e+01 |    Inf | unknown
r 1.0s|     1 |     0 |  7238 |     - |simplero|   0 |2776 | 170 | 170 |   0 |  0 |   0 |   0 |      --      | 2.882610e+01 |    Inf | unknown
r 1.0s|     1 |     0 |  7398 |     - |simplero|   0 |2793 | 170 | 170 |   0 |  0 |   0 |   0 |      --      | 2.471811e+01 |    Inf | unknown
r 1.0s|     1 |     0 |  7504 |     - |simplero|   0 |2810 | 170 | 170 |   0 |  0 |   0 |   0 |      --      | 2.371722e+01 |    Inf | unknown
r 1.0s|     1 |     0 |  7655 |     - |simplero|   0 |2827 | 170 | 170 |   0 |  0 |   0 |   0 |      --      | 2.226105e+01 |    Inf | unknown
r 1.0s|     1 |     0 |  7831 |     - |simplero|   0 |2844 | 170 | 170 |   0 |  0 |   0 |   0 |      --      | 2.005186e+01 |    Inf | unknown
r 1.1s|     1 |     0 |  8018 |     - |simplero|   0 |2861 | 170 | 170 |   0 |  0 |   0 |   0 |      --      | 1.673175e+01 |    Inf | unknown
r 1.1s|     1 |     0 |  8191 |     - |simplero|   0 |2878 | 170 | 170 |   0 |  0 |   0 |   0 |      --      | 1.482658e+01 |    Inf | unknown
r 1.1s|     1 |     0 |  8298 |     - |simplero|   0 |2895 | 170 | 170 |   0 |  0 |   0 |   0 |      --      | 1.322054e+01 |    Inf | unknown
r 1.1s|     1 |     0 |  8395 |     - |simplero|   0 |2895 | 170 | 170 |   0 |  0 |   0 |   0 |      --      | 1.262774e+01 |    Inf | unknown
r 1.1s|     1 |     0 |  8434 |     - |simplero|   0 |2895 | 170 | 170 |   0 |  0 |   0 |   0 |      --      | 1.257995e+01 |    Inf | unknown
r 1.1s|     1 |     0 |  8436 |     - |simplero|   0 |2895 | 170 | 170 |   0 |  0 |   0 |   0 |      --      | 1.257980e+01 |    Inf | unknown
r 1.1s|     1 |     0 |  8438 |     - |simplero|   0 |2895 | 170 | 170 |   0 |  0 |   0 |   0 |      --      | 1.257968e+01 |    Inf | unknown
 time | node  | left  |LP iter|LP it/n|mem/heur|mdpt |vars |cons |rows |cuts |sepa|confs|strbr|  dualbound   | primalbound  |  gap   | compl. 
r 1.2s|     1 |     0 |  8581 |     - |simplero|   0 |2912 | 170 | 170 |   0 |  0 |   0 |   0 |      --      | 1.047923e+01 |    Inf | unknown
r 1.2s|     1 |     0 |  8611 |     - |simplero|   0 |2912 | 170 | 170 |   0 |  0 |   0 |   0 |      --      | 1.023572e+01 |    Inf | unknown
r 1.2s|     1 |     0 |  8646 |     - |simplero|   0 |2912 | 170 | 170 |   0 |  0 |   0 |   0 |      --      | 1.015870e+01 |    Inf | unknown
r 1.2s|     1 |     0 |  8657 |     - |simplero|   0 |2912 | 170 | 170 |   0 |  0 |   0 |   0 |      --      | 1.014058e+01 |    Inf | unknown
r 1.2s|     1 |     0 |  8658 |     - |simplero|   0 |2912 | 170 | 170 |   0 |  0 |   0 |   0 |      --      | 1.014053e+01 |    Inf | unknown
r 1.2s|     1 |     0 |  8787 |     - |simplero|   0 |2929 | 170 | 170 |   0 |  0 |   0 |   0 |      --      | 8.489223e+00 |    Inf | unknown
r 1.2s|     1 |     0 |  8845 |     - |simplero|   0 |2929 | 170 | 170 |   0 |  0 |   0 |   0 |      --      | 7.973079e+00 |    Inf | unknown
r 1.2s|     1 |     0 |  8875 |     - |simplero|   0 |2929 | 170 | 170 |   0 |  0 |   0 |   0 |      --      | 7.936558e+00 |    Inf | unknown
r 1.2s|     1 |     0 |  8887 |     - |simplero|   0 |2929 | 170 | 170 |   0 |  0 |   0 |   0 |      --      | 7.933026e+00 |    Inf | unknown
r 1.2s|     1 |     0 |  9007 |     - |simplero|   0 |2946 | 170 | 170 |   0 |  0 |   0 |   0 |      --      | 6.079496e+00 |    Inf | unknown
r 1.2s|     1 |     0 |  9052 |     - |simplero|   0 |2946 | 170 | 170 |   0 |  0 |   0 |   0 |      --      | 5.924777e+00 |    Inf | unknown
r 1.2s|     1 |     0 |  9061 |     - |simplero|   0 |2946 | 170 | 170 |   0 |  0 |   0 |   0 |      --      | 5.923252e+00 |    Inf | unknown
r 1.3s|     1 |     0 |  9065 |     - |simplero|   0 |2946 | 170 | 170 |   0 |  0 |   0 |   0 |      --      | 5.922657e+00 |    Inf | unknown
r 1.3s|     1 |     0 |  9126 |     - |simplero|   0 |2963 | 170 | 170 |   0 |  0 |   0 |   0 |      --      | 5.234304e+00 |    Inf | unknown
r 1.3s|     1 |     0 |  9200 |     - |simplero|   0 |2963 | 170 | 170 |   0 |  0 |   0 |   0 |      --      | 4.714320e+00 |    Inf | unknown
 time | node  | left  |LP iter|LP it/n|mem/heur|mdpt |vars |cons |rows |cuts |sepa|confs|strbr|  dualbound   | primalbound  |  gap   | compl. 
r 1.3s|     1 |     0 |  9245 |     - |simplero|   0 |2963 | 170 | 170 |   0 |  0 |   0 |   0 |      --      | 4.509251e+00 |    Inf | unknown
r 1.3s|     1 |     0 |  9263 |     - |simplero|   0 |2963 | 170 | 170 |   0 |  0 |   0 |   0 |      --      | 4.472450e+00 |    Inf | unknown
r 1.3s|     1 |     0 |  9386 |     - |simplero|   0 |2980 | 170 | 170 |   0 |  0 |   0 |   0 |      --      | 3.046655e+00 |    Inf | unknown
  1.3s|     1 |     0 |  9420 |     - |    14M |   0 |2980 | 170 | 170 |   0 |  0 |   0 |   0 |      --      | 3.046655e+00 |    Inf | unknown
r 1.3s|     1 |     0 |  9420 |     - |simplero|   0 |2980 | 170 | 170 |   0 |  0 |   0 |   0 |      --      | 2.987652e+00 |    Inf | unknown
r 1.3s|     1 |     0 |  9427 |     - |simplero|   0 |2980 | 170 | 170 |   0 |  0 |   0 |   0 |      --      | 2.985902e+00 |    Inf | unknown
r 1.3s|     1 |     0 |  9431 |     - |simplero|   0 |2980 | 170 | 170 |   0 |  0 |   0 |   0 |      --      | 2.985592e+00 |    Inf | unknown
r 1.3s|     1 |     0 |  9527 |     - |simplero|   0 |2997 | 170 | 170 |   0 |  0 |   0 |   0 |      --      | 2.374201e+00 |    Inf | unknown
r 1.3s|     1 |     0 |  9568 |     - |simplero|   0 |2997 | 170 | 170 |   0 |  0 |   0 |   0 |      --      | 2.209519e+00 |    Inf | unknown
r 1.3s|     1 |     0 |  9578 |     - |simplero|   0 |2997 | 170 | 170 |   0 |  0 |   0 |   0 |      --      | 2.185397e+00 |    Inf | unknown
r 1.3s|     1 |     0 |  9587 |     - |simplero|   0 |2997 | 170 | 170 |   0 |  0 |   0 |   0 |      --      | 2.182116e+00 |    Inf | unknown
r 1.4s|     1 |     0 |  9663 |     - |simplero|   0 |3014 | 170 | 170 |   0 |  0 |   0 |   0 |      --      | 1.660656e+00 |    Inf | unknown
r 1.4s|     1 |     0 |  9712 |     - |simplero|   0 |3014 | 170 | 170 |   0 |  0 |   0 |   0 |      --      | 1.513841e+00 |    Inf | unknown
r 1.4s|     1 |     0 |  9739 |     - |simplero|   0 |3014 | 170 | 170 |   0 |  0 |   0 |   0 |      --      | 1.485642e+00 |    Inf | unknown
r 1.4s|     1 |     0 |  9860 |     - |simplero|   0 |3031 | 170 | 170 |   0 |  0 |   0 |   0 |      --      | 7.165009e-01 |    Inf | unknown
 time | node  | left  |LP iter|LP it/n|mem/heur|mdpt |vars |cons |rows |cuts |sepa|confs|strbr|  dualbound   | primalbound  |  gap   | compl. 
r 1.4s|     1 |     0 |  9910 |     - |simplero|   0 |3031 | 170 | 170 |   0 |  0 |   0 |   0 |      --      | 5.963013e-01 |    Inf | unknown
r 1.4s|     1 |     0 |  9920 |     - |simplero|   0 |3031 | 170 | 170 |   0 |  0 |   0 |   0 |      --      | 5.909244e-01 |    Inf | unknown
r 1.4s|     1 |     0 |  9979 |     - |simplero|   0 |3048 | 170 | 170 |   0 |  0 |   0 |   0 |      --      | 2.260456e-01 |    Inf | unknown
r 1.4s|     1 |     0 | 10020 |     - |simplero|   0 |3048 | 170 | 170 |   0 |  0 |   0 |   0 |      --      | 6.372036e-02 |    Inf | unknown
r 1.4s|     1 |     0 | 10034 |     - |simplero|   0 |3048 | 170 | 170 |   0 |  0 |   0 |   0 |      --      | 4.954270e-02 |    Inf | unknown
r 1.4s|     1 |     0 | 10041 |     - |simplero|   0 |3065 | 170 | 170 |   0 |  0 |   0 |   0 |      --      | 0.000000e+00 |    Inf | unknown
  1.4s|     1 |     0 | 10041 |     - |    15M |   0 |3065 | 170 | 170 |   0 |  0 |   0 |   0 | 0.000000e+00 | 0.000000e+00 |   0.00%| unknown
  1.4s|     1 |     0 | 10041 |     - |    15M |   0 |3065 | 170 | 170 |   0 |  0 |   0 |   0 | 0.000000e+00 | 0.000000e+00 |   0.00%| unknown

SCIP Status        : problem is solved [optimal solution found]
Solving Time (sec) : 1.44
Solving Nodes      : 1
Primal Bound       : +0.00000000000000e+00 (48 solutions)
Dual Bound         : +0.00000000000000e+00
Gap                : 0.00 %

written transformed problem to file <results_rootrelaxation/bin018_050_042.srr.lp>
written transformed problem to file <results_rootrelaxation/bin018_050_042.srr.cip>

written solution information to file <results_rootrelaxation/bin018_050_042.srr.sol>



